n_res = 4;
rcap = [14, 15, 47, 33];
rtype = [1, 1, 2, 2];
n_tasks = 14;
modes = [ {1, 2, 3}, {4, 5, 6}, {7, 8, 9}, {10, 11, 12}, {13, 14, 15}, {16, 17, 18}, {19, 20, 21}, {22, 23, 24}, {25, 26, 27}, {28, 29, 30}, {31, 32, 33}, {34, 35, 36}, {37, 38, 39}, {40, 41, 42} ];
succ = [ {5, 6}, {4, 8}, {5, 7, 11}, {6}, {8, 9, 10}, {12}, {8, 9, 10}, {14}, {13, 14}, {12, 13}, {12, 13, 14}, {}, {}, {} ];
n_opt = 42;
dur = [6, 6, 7, 7, 9, 9, 4, 5, 7, 1, 5, 8, 1, 7, 9, 2, 4, 8, 3, 5, 10, 2, 3, 7, 1, 1, 3, 7, 8, 8, 1, 3, 5, 4, 4, 4, 2, 4, 10, 4, 6, 9];
rreq = [|  9,  0,  0,  0,  7,  9,  0,  6,  0,  5,  4,  0,  0,  7,  0,  0,  0,  5,  8,  0,  0,  7,  0,  5,  0,  8,  6,  0,  5,  0,  1,  0,  0,  7,  1,  0,  6,  0,  0,  6,  0,  5
        |  0,  6,  2,  5,  0,  0,  7,  0,  4,  0,  0,  5,  8,  0,  7,  3,  2,  0,  0, 10,  8,  0,  8,  0,  7,  0,  0,  9,  0,  7,  0,  5,  5,  0,  0,  6,  0,  8,  7,  0,  8,  0
        |  9,  0,  7,  0,  0,  4,  0,  0,  0,  5,  4,  0, 10, 10,  9,  0,  4,  4,  8,  6,  5,  0,  0,  0,  6,  5,  0,  0,  8,  8,  7,  6,  4,  4,  0,  7,  3,  0,  3,  0,  0,  4
        |  0,  1,  0,  5,  2,  0,  8,  3,  2,  0,  0,  3,  0,  0,  0,  3,  0,  0,  0,  0,  0, 10,  8,  7,  0,  0,  9,  2,  0,  0,  0,  0,  0,  0,  4,  0,  0,  7,  0,  5,  1,  0 |];
